(set-info :smt-lib-version 2.6)
(set-logic QF_UFBV)
(set-info :source |
Generated by: Certora
Generated on: 2024-01-16
Generator: The Certora Prover
Application: Web3 security
|)
(set-info :license "https://creativecommons.org/licenses/by/4.0/")
(set-info :category "industrial")
(set-info :status unknown)
(declare-fun x95 () (_ BitVec 256))
(declare-fun x197 () (_ BitVec 256))
(declare-fun x170 () (_ BitVec 256))
(declare-fun x153 ((_ BitVec 256)) (_ BitVec 256))
(declare-fun x87 () (_ BitVec 256))
(declare-fun x280 () (_ BitVec 256))
(declare-fun x145 () (_ BitVec 256))
(declare-fun x193 () (_ BitVec 256))
(declare-fun x275 () (_ BitVec 256))
(declare-fun x291 ((_ BitVec 256)) (_ BitVec 256))
(declare-fun x144 () (_ BitVec 256))
(declare-fun x202 () (_ BitVec 256))
(declare-fun x7 () (_ BitVec 256))
(declare-fun x96 () Bool)
(declare-fun x50 () (_ BitVec 256))
(declare-fun x217 () (_ BitVec 256))
(declare-fun x55 () (_ BitVec 256))
(declare-fun x313 () (_ BitVec 256))
(declare-fun x255 ((_ BitVec 256)) (_ BitVec 256))
(declare-fun x86 () (_ BitVec 256))
(declare-fun x39 () (_ BitVec 256))
(declare-fun x152 () (_ BitVec 256))
(declare-fun x134 () Bool)
(declare-fun x271 () (_ BitVec 256))
(declare-fun x340 () (_ BitVec 256))
(declare-fun x215 () (_ BitVec 256))
(declare-fun x158 () (_ BitVec 256))
(declare-fun x174 () (_ BitVec 256))
(declare-fun x325 () Bool)
(declare-fun x115 ((_ BitVec 256)) (_ BitVec 256))
(declare-fun x161 () (_ BitVec 256))
(declare-fun x332 () Bool)
(declare-fun x108 () (_ BitVec 256))
(declare-fun x187 () (_ BitVec 256))
(declare-fun x101 () (_ BitVec 256))
(declare-fun x294 () (_ BitVec 256))
(declare-fun x356 () Bool)
(declare-fun x11 () Bool)
(declare-fun x23 () Bool)
(declare-fun x237 () (_ BitVec 256))
(declare-fun x14 () (_ BitVec 256))
(declare-fun x198 () (_ BitVec 256))
(declare-fun x267 () (_ BitVec 256))
(declare-fun x208 () (_ BitVec 256))
(declare-fun x110 () (_ BitVec 256))
(declare-fun x72 () (_ BitVec 256))
(declare-fun x58 () (_ BitVec 256))
(declare-fun x73 () (_ BitVec 256))
(declare-fun x251 () (_ BitVec 256))
(declare-fun x190 () (_ BitVec 256))
(declare-fun x114 () Bool)
(declare-fun x262 ((_ BitVec 256)) (_ BitVec 256))
(declare-fun x35 () (_ BitVec 256))
(declare-fun x249 () (_ BitVec 256))
(declare-fun x91 () (_ BitVec 256))
(declare-fun x320 () (_ BitVec 256))
(declare-fun x79 () (_ BitVec 256))
(declare-fun x273 ((_ BitVec 256)) (_ BitVec 256))
(declare-fun x299 () (_ BitVec 256))
(declare-fun x155 () (_ BitVec 256))
(declare-fun x201 () (_ BitVec 256))
(declare-fun x147 () (_ BitVec 256))
(declare-fun x185 () (_ BitVec 256))
(declare-fun x30 () (_ BitVec 256))
(declare-fun x127 () (_ BitVec 256))
(declare-fun x119 () (_ BitVec 256))
(declare-fun x189 () (_ BitVec 256))
(declare-fun x57 () Bool)
(declare-fun x188 () (_ BitVec 256))
(declare-fun x172 () (_ BitVec 256))
(declare-fun x350 () (_ BitVec 256))
(declare-fun x26 ((_ BitVec 256) (_ BitVec 256) (_ BitVec 256) (_ BitVec 256) (_ BitVec 256) (_ BitVec 256)) (_ BitVec 256))
(declare-fun x40 () (_ BitVec 256))
(declare-fun x319 () (_ BitVec 256))
(declare-fun x296 () Bool)
(declare-fun x297 ((_ BitVec 256)) (_ BitVec 256))
(declare-fun x194 () (_ BitVec 256))
(declare-fun x75 () (_ BitVec 256))
(declare-fun x355 () (_ BitVec 256))
(declare-fun x5 () (_ BitVec 256))
(declare-fun x257 () (_ BitVec 256))
(declare-fun x343 () Bool)
(declare-fun x209 () Bool)
(declare-fun x59 () (_ BitVec 256))
(declare-fun x321 () (_ BitVec 256))
(declare-fun x77 () Bool)
(declare-fun x283 () (_ BitVec 256))
(declare-fun x136 () (_ BitVec 256))
(declare-fun x142 () (_ BitVec 256))
(declare-fun x184 () Bool)
(declare-fun x348 () (_ BitVec 256))
(declare-fun x243 () Bool)
(declare-fun x324 () Bool)
(declare-fun x100 () (_ BitVec 256))
(declare-fun x334 () (_ BitVec 256))
(declare-fun x351 () (_ BitVec 256))
(declare-fun x63 () (_ BitVec 256))
(declare-fun x148 () (_ BitVec 256))
(declare-fun x154 () (_ BitVec 256))
(declare-fun x314 () (_ BitVec 256))
(declare-fun x336 () (_ BitVec 256))
(declare-fun x176 () (_ BitVec 256))
(declare-fun x51 () (_ BitVec 256))
(declare-fun x272 () (_ BitVec 256))
(declare-fun x323 () (_ BitVec 256))
(declare-fun x258 () (_ BitVec 256))
(declare-fun x31 () Bool)
(declare-fun x286 () (_ BitVec 256))
(declare-fun x342 () (_ BitVec 256))
(declare-fun x90 () (_ BitVec 256))
(declare-fun x159 () (_ BitVec 256))
(declare-fun x285 () Bool)
(declare-fun x137 () (_ BitVec 256))
(declare-fun x322 () Bool)
(declare-fun x213 () (_ BitVec 256))
(declare-fun x150 () (_ BitVec 256))
(declare-fun x328 () (_ BitVec 256))
(declare-fun x47 () (_ BitVec 256))
(declare-fun x317 () (_ BitVec 256))
(declare-fun x318 () (_ BitVec 256))
(declare-fun x199 () Bool)
(declare-fun x227 ((_ BitVec 256)) (_ BitVec 256))
(declare-fun x301 () (_ BitVec 256))
(declare-fun x282 () (_ BitVec 256))
(declare-fun x228 () (_ BitVec 256))
(declare-fun x183 () (_ BitVec 256))
(declare-fun x298 () (_ BitVec 256))
(declare-fun x116 () (_ BitVec 256))
(declare-fun x62 () (_ BitVec 256))
(declare-fun x20 () Bool)
(declare-fun x177 () (_ BitVec 256))
(declare-fun x16 () Bool)
(declare-fun x103 () (_ BitVec 256))
(declare-fun x88 () (_ BitVec 256))
(declare-fun x300 () (_ BitVec 256))
(declare-fun x274 () (_ BitVec 256))
(declare-fun x253 () Bool)
(declare-fun x27 () (_ BitVec 256))
(declare-fun x28 () Bool)
(declare-fun x164 () (_ BitVec 256))
(declare-fun x347 () (_ BitVec 256))
(declare-fun x204 () (_ BitVec 256))
(declare-fun x19 () (_ BitVec 256))
(declare-fun x113 () (_ BitVec 256))
(declare-fun x338 () (_ BitVec 256))
(declare-fun x78 ((_ BitVec 256)) (_ BitVec 256))
(declare-fun x61 () (_ BitVec 256))
(declare-fun x71 () (_ BitVec 256))
(declare-fun x45 () (_ BitVec 256))
(declare-fun x329 () (_ BitVec 256))
(declare-fun x13 () (_ BitVec 256))
(declare-fun x17 () (_ BitVec 256))
(declare-fun x236 () (_ BitVec 256))
(declare-fun x139 () (_ BitVec 256))
(declare-fun x259 () (_ BitVec 256))
(declare-fun x241 ((_ BitVec 256)) (_ BitVec 256))
(declare-fun x223 () (_ BitVec 256))
(declare-fun x214 () (_ BitVec 256))
(declare-fun x222 () (_ BitVec 256))
(declare-fun x92 () Bool)
(declare-fun x290 () (_ BitVec 256))
(declare-fun x12 () (_ BitVec 256))
(declare-fun x224 () (_ BitVec 256))
(declare-fun x292 ((_ BitVec 256)) (_ BitVec 256))
(declare-fun x279 () (_ BitVec 256))
(declare-fun x252 () (_ BitVec 256))
(declare-fun x124 () (_ BitVec 256))
(declare-fun x256 () (_ BitVec 256))
(declare-fun x337 () (_ BitVec 256))
(declare-fun x182 () (_ BitVec 256))
(declare-fun x293 () (_ BitVec 256))
(declare-fun x277 () (_ BitVec 256))
(declare-fun x175 () (_ BitVec 256))
(declare-fun x212 () (_ BitVec 256))
(declare-fun x122 () Bool)
(declare-fun x143 () (_ BitVec 256))
(declare-fun x29 () (_ BitVec 256))
(declare-fun x346 () (_ BitVec 256))
(declare-fun x330 () (_ BitVec 256))
(declare-fun x244 () (_ BitVec 256))
(declare-fun x310 () Bool)
(declare-fun x65 () (_ BitVec 256))
(declare-fun x24 () (_ BitVec 256))
(declare-fun x131 () (_ BitVec 256))
(declare-fun x166 () Bool)
(declare-fun x303 () (_ BitVec 256))
(declare-fun x234 () (_ BitVec 256))
(declare-fun x333 () (_ BitVec 256))
(declare-fun x151 () (_ BitVec 256))
(declare-fun x327 () (_ BitVec 256))
(declare-fun x133 () (_ BitVec 256))
(declare-fun x44 () (_ BitVec 256))
(declare-fun x218 () (_ BitVec 256))
(declare-fun x211 () (_ BitVec 256))
(declare-fun x107 () (_ BitVec 256))
(declare-fun x268 () Bool)
(declare-fun x105 () (_ BitVec 256))
(declare-fun x196 () (_ BitVec 256))
(declare-fun x232 () (_ BitVec 256))
(declare-fun x195 () Bool)
(declare-fun x349 () Bool)
(declare-fun x10 () (_ BitVec 256))
(declare-fun x173 () (_ BitVec 256))
(declare-fun x53 () Bool)
(declare-fun x250 () (_ BitVec 256))
(declare-fun x117 () (_ BitVec 256))
(declare-fun x203 () (_ BitVec 256))
(declare-fun x191 () (_ BitVec 256))
(declare-fun x123 () (_ BitVec 256))
(declare-fun x68 () (_ BitVec 256))
(declare-fun x307 () (_ BitVec 256))
(declare-fun x304 ((_ BitVec 256)) (_ BitVec 256))
(declare-fun x128 () (_ BitVec 256))
(declare-fun x326 () Bool)
(declare-fun x38 () (_ BitVec 256))
(declare-fun x289 () (_ BitVec 256))
(declare-fun x168 () (_ BitVec 256))
(declare-fun x112 () (_ BitVec 256))
(declare-fun x89 () (_ BitVec 256))
(declare-fun x25 () (_ BitVec 256))
(declare-fun x146 () (_ BitVec 256))
(declare-fun x1 () (_ BitVec 256))
(declare-fun x354 () (_ BitVec 256))
(declare-fun x157 () Bool)
(declare-fun x102 () (_ BitVec 256))
(declare-fun x80 () Bool)
(declare-fun x98 () (_ BitVec 256))
(declare-fun x312 () (_ BitVec 256))
(declare-fun x344 () Bool)
(declare-fun x76 () Bool)
(declare-fun x74 () (_ BitVec 256))
(declare-fun x67 () (_ BitVec 256))
(declare-fun x179 () (_ BitVec 256))
(declare-fun x6 () Bool)
(declare-fun x186 () (_ BitVec 256))
(declare-fun x235 () (_ BitVec 256))
(declare-fun x230 () (_ BitVec 256))
(declare-fun x306 () (_ BitVec 256))
(declare-fun x129 () (_ BitVec 256))
(declare-fun x41 () (_ BitVec 256))
(declare-fun x308 () (_ BitVec 256))
(declare-fun x247 () (_ BitVec 256))
(declare-fun x246 () (_ BitVec 256))
(declare-fun x162 () (_ BitVec 256))
(declare-fun x264 () (_ BitVec 256))
(declare-fun x93 () Bool)
(declare-fun x287 () (_ BitVec 256))
(declare-fun x33 () (_ BitVec 256))
(declare-fun x263 () (_ BitVec 256))
(declare-fun x42 () (_ BitVec 256))
(declare-fun x220 () Bool)
(declare-fun x56 () (_ BitVec 256))
(declare-fun x261 () (_ BitVec 256))
(declare-fun x335 () Bool)
(declare-fun x60 () (_ BitVec 256))
(declare-fun x233 () (_ BitVec 256))
(declare-fun x288 () (_ BitVec 256))
(declare-fun x265 () (_ BitVec 256))
(declare-fun x85 () (_ BitVec 256))
(declare-fun x125 () Bool)
(declare-fun x200 () (_ BitVec 256))
(declare-fun x180 () (_ BitVec 256))
(declare-fun x181 () (_ BitVec 256))
(declare-fun x242 () (_ BitVec 256))
(declare-fun x284 () Bool)
(declare-fun x221 () (_ BitVec 256))
(declare-fun x82 () (_ BitVec 256))
(declare-fun x99 () (_ BitVec 256))
(declare-fun x36 () Bool)
(declare-fun x352 () (_ BitVec 256))
(declare-fun x309 () (_ BitVec 256))
(declare-fun x43 () (_ BitVec 256))
(declare-fun x21 () (_ BitVec 256))
(declare-fun x171 () (_ BitVec 256))
(declare-fun x331 () (_ BitVec 256))
(declare-fun x4 () (_ BitVec 256))
(declare-fun x341 () Bool)
(declare-fun x104 () (_ BitVec 256))
(declare-fun x248 () (_ BitVec 256))
(declare-fun x32 () (_ BitVec 256))
(declare-fun x149 ((_ BitVec 256)) (_ BitVec 256))
(declare-fun x94 () (_ BitVec 256))
(declare-fun x34 () (_ BitVec 256))
(declare-fun x69 () Bool)
(declare-fun x315 () Bool)
(declare-fun x302 () (_ BitVec 256))
(declare-fun x9 () (_ BitVec 256))
(declare-fun x316 () (_ BitVec 256))
(declare-fun x138 () (_ BitVec 256))
(declare-fun x15 () (_ BitVec 256))
(declare-fun x219 () (_ BitVec 256))
(declare-fun x52 () Bool)
(declare-fun x54 () (_ BitVec 256))
(declare-fun x311 () (_ BitVec 256))
(declare-fun x207 () (_ BitVec 256))
(declare-fun x339 () (_ BitVec 256))
(declare-fun x83 () (_ BitVec 256))
(declare-fun x64 () Bool)
(declare-fun x8 () (_ BitVec 256))
(declare-fun x81 () (_ BitVec 256))
(declare-fun x169 () (_ BitVec 256))
(declare-fun x106 () Bool)
(declare-fun x238 () (_ BitVec 256))
(declare-fun x239 () (_ BitVec 256))
(declare-fun x130 () Bool)
(declare-fun x216 () (_ BitVec 256))
(declare-fun x276 () (_ BitVec 256))
(declare-fun x206 () (_ BitVec 256))
(declare-fun x210 () (_ BitVec 256))
(declare-fun x118 () (_ BitVec 256))
(declare-fun x254 () (_ BitVec 256))
(declare-fun x84 ((_ BitVec 256)) Bool)
(declare-fun x266 () (_ BitVec 256))
(declare-fun x121 () (_ BitVec 256))
(declare-fun x231 () (_ BitVec 256))
(declare-fun x167 () Bool)
(declare-fun x353 () Bool)
(declare-fun x70 ((_ BitVec 256) (_ BitVec 256) (_ BitVec 256)) (_ BitVec 256))
(declare-fun x156 () (_ BitVec 256))
(declare-fun x278 () (_ BitVec 256))
(declare-fun x178 () (_ BitVec 256))
(declare-fun x126 () (_ BitVec 256))
(declare-fun x135 () (_ BitVec 256))
(define-fun x226 ((x260 (_ BitVec 256)) (x22 (_ BitVec 256))) Bool (= x260 (bvudiv (bvmul x22 x260) x22)))
(define-fun x49 ((x260 (_ BitVec 256)) (x22 (_ BitVec 256))) Bool (= x260 (bvsdiv (bvmul x260 x22) x22)))
(define-fun x225 ((x260 (_ BitVec 256)) (x22 (_ BitVec 256))) Bool (= x260 (bvsdiv (bvmul x22 x260) x22)))
(define-fun x165 ((x163 (_ BitVec 256))) (_ BitVec 256) (_ bv0 256))
(define-fun x269 ((x163 (_ BitVec 256))) (_ BitVec 256) (_ bv0 256))
(define-fun x229 ((x163 (_ BitVec 256))) (_ BitVec 256) (_ bv0 256))
(define-fun x245 ((x163 (_ BitVec 256))) (_ BitVec 256) (ite (= x163 (_ bv128 256)) x47 (x165 x163)))
(define-fun x48 ((x163 (_ BitVec 256))) (_ BitVec 256) (ite (= x163 (_ bv160 256)) x239 (x245 x163)))
(define-fun x141 ((x163 (_ BitVec 256))) (_ BitVec 256) (ite (= x163 (_ bv192 256)) x126 (x48 x163)))
(define-fun x46 ((x163 (_ BitVec 256))) (_ BitVec 256) (ite (= x163 (_ bv224 256)) x87 (x141 x163)))
(define-fun x97 ((x163 (_ BitVec 256))) (_ BitVec 256) (ite (= x163 (_ bv256 256)) x117 (x46 x163)))
(define-fun x109 ((x163 (_ BitVec 256))) (_ BitVec 256) (ite (= (_ bv288 256) x163) x246 (x97 x163)))
(define-fun x270 ((x163 (_ BitVec 256))) (_ BitVec 256) (ite (= x163 (_ bv128 256)) x316 (x269 x163)))
(define-fun x345 ((x163 (_ BitVec 256))) (_ BitVec 256) (ite (= (_ bv160 256) x163) x113 (x270 x163)))
(define-fun x37 ((x163 (_ BitVec 256))) (_ BitVec 256) (ite (= x163 (_ bv192 256)) x208 (x345 x163)))
(define-fun x18 ((x163 (_ BitVec 256))) (_ BitVec 256) (ite (= x163 (_ bv224 256)) x73 (x37 x163)))
(define-fun x305 ((x163 (_ BitVec 256))) (_ BitVec 256) (ite (= (_ bv256 256) x163) x171 (x18 x163)))
(define-fun x111 ((x163 (_ BitVec 256))) (_ BitVec 256) (ite (= (_ bv288 256) x163) (_ bv72464927124685711895252664195178772226123872012682517813167109100718830649344 256) (x305 x163)))
(define-fun x281 ((x163 (_ BitVec 256))) (_ BitVec 256) (ite (= x163 x196) x129 (x255 x163)))
(define-fun x66 ((x163 (_ BitVec 256))) (_ BitVec 256) (ite (= x135 x163) x278 (x262 x163)))
(define-fun x205 ((x163 (_ BitVec 256))) (_ BitVec 256) (ite (= (_ bv128 256) x163) x60 (x229 x163)))
(define-fun x3 ((x163 (_ BitVec 256))) (_ BitVec 256) (ite (= x163 (_ bv160 256)) x330 (x205 x163)))
(define-fun x240 ((x163 (_ BitVec 256))) (_ BitVec 256) (ite (= x163 (_ bv192 256)) x25 (x3 x163)))
(define-fun x192 ((x163 (_ BitVec 256))) (_ BitVec 256) (ite (= x163 (_ bv224 256)) x5 (x240 x163)))
(define-fun x120 ((x163 (_ BitVec 256))) (_ BitVec 256) (ite (= (_ bv256 256) x163) x152 (x192 x163)))
(define-fun x295 ((x163 (_ BitVec 256))) (_ BitVec 256) (ite (= x163 (_ bv288 256)) (_ bv72464927124685711895252664195178772226123872012682517813167109100718830649344 256) (x120 x163)))
(define-fun x160 ((x163 (_ BitVec 256))) (_ BitVec 256) (ite (= (_ bv0 256) x163) x91 (x291 x163)))
(define-fun x2 ((x163 (_ BitVec 256))) (_ BitVec 256) (ite (and (bvult x163 (_ bv320 256)) (bvuge x163 (_ bv288 256))) (x160 (bvadd x163 (bvneg (_ bv288 256)))) (x111 x163)))
(define-fun x140 ((x163 (_ BitVec 256))) (_ BitVec 256) (ite (= x163 (_ bv0 256)) x224 (x304 x163)))
(define-fun x132 ((x163 (_ BitVec 256))) (_ BitVec 256) (ite (and (bvule (_ bv288 256) x163) (bvult x163 (_ bv320 256))) (x140 (bvadd (bvneg (_ bv288 256)) x163)) (x295 x163)))
(assert (=> (bvuge (_ bv10000 256) x342) (= (_ bv0 256) (x273 x342))))
(assert (= (or x80 x125) x195))
(assert (x84 (_ bv1534929069 256)))
(assert (= (x273 (_ bv1000000000000000000000000000000000000 256)) (_ bv0 256)))
(assert (= (x273 (_ bv181336955 256)) (_ bv0 256)))
(assert (= (_ bv64 256) (x227 (x70 (_ bv64 256) x339 x251))))
(assert (= x128 (x153 (x26 (_ bv160 256) x128 x172 x176 x168 x318))))
(assert (= (_ bv0 256) (x273 (_ bv340282366920938463463374607431768211456 256))))
(assert (= (x273 (_ bv1058260626 256)) (_ bv0 256)))
(assert (= (x115 (x70 (_ bv64 256) x62 (_ bv2 256))) (_ bv2 256)))
(assert (= (x273 (x70 (_ bv64 256) x67 x275)) (x70 (_ bv64 256) x67 x275)))
(assert (= (x273 (bvadd x350 (_ bv2 256))) (x273 x350)))
(assert (= (x273 (_ bv3490909752 256)) (_ bv0 256)))
(assert (x84 (_ bv999999999999999999 256)))
(assert (=> (bvuge (_ bv10000 256) x128) (= (x273 x128) (_ bv0 256))))
(assert (bvult (_ bv10000 256) (x26 (_ bv160 256) x56 x7 x237 x150 x230)))
(assert (not (x84 (x70 (_ bv64 256) x342 x124))))
(assert (= (x227 (x26 (_ bv160 256) x56 x7 x237 x150 x230)) (_ bv160 256)))
(assert (=> (bvuge (_ bv10000 256) x237) (= (x273 x237) (_ bv0 256))))
(assert (bvult (_ bv10000 256) (x70 (_ bv64 256) x342 x244)))
(assert (= (x273 (x70 (_ bv64 256) x62 (_ bv3 256))) (x70 (_ bv64 256) x62 (_ bv3 256))))
(assert (=> (bvuge (_ bv10000 256) x168) (= (_ bv0 256) (x273 x168))))
(assert (= x86 (x153 (x70 (_ bv64 256) x86 (_ bv3 256)))))
(assert (= (x153 (x70 (_ bv64 256) x62 (_ bv2 256))) x62))
(assert (= (x241 (x26 (_ bv160 256) x112 x263 x256 x101 x355)) x256))
(assert (=> (bvuge (_ bv10000 256) x263) (= (x273 x263) (_ bv0 256))))
(assert (= (_ bv0 256) (x273 (_ bv1000000000000000000 256))))
(assert (bvugt (x70 (_ bv64 256) x342 x10) (_ bv10000 256)))
(assert (= (x273 (x26 (_ bv160 256) x112 x263 x256 x101 x355)) (x26 (_ bv160 256) x112 x263 x256 x101 x355)))
(assert (not (x84 (x70 (_ bv64 256) x79 (_ bv3 256)))))
(assert (= x125 (or x11 x106)))
(assert (= (_ bv0 256) (x273 (_ bv999999999999999999 256))))
(assert (x84 (_ bv115792089237316195423570985008687907853269984665640564039457584007913129639935 256)))
(assert (x84 (_ bv181336955 256)))
(assert (= (x273 (x26 (_ bv160 256) x56 x7 x237 x150 x230)) (x26 (_ bv160 256) x56 x7 x237 x150 x230)))
(assert (=> (bvule x176 (_ bv10000 256)) (= (x273 x176) (_ bv0 256))))
(assert (= (and x315 (not x253)) x335))
(assert (= (x273 (x70 (_ bv64 256) x339 x251)) (x70 (_ bv64 256) x339 x251)))
(assert (= (x273 (bvadd (_ bv1 256) x137)) (x273 x137)))
(assert (= (x292 (x26 (_ bv160 256) x56 x7 x237 x150 x230)) x230))
(assert (bvugt (x70 (_ bv64 256) x339 x290) (_ bv10000 256)))
(assert (bvult (_ bv10000 256) (x70 (_ bv64 256) x62 (_ bv3 256))))
(assert (= (x273 (bvadd x298 (_ bv1 256))) (x273 x298)))
(assert (=> (bvuge (_ bv10000 256) x348) (= (_ bv0 256) (x273 x348))))
(assert (not (x84 (x70 (_ bv64 256) x79 (_ bv2 256)))))
(assert (= (x153 (x70 (_ bv64 256) x342 x244)) x342))
(assert (= (x273 (_ bv3745429343 256)) (_ bv0 256)))
(assert (= (_ bv0 256) (x273 (_ bv340282366920938463463374607431768211455 256))))
(assert (= (and (not x64) x326) x325))
(assert (= x77 (=> (and (and (and (= x169 (bvudiv x213 (_ bv340282366920938463463374607431768211456 256))) (= (bvadd (_ bv1 256) x27) x215) (= x207 (bvadd x175 (_ bv1 256))) (= (bvand x110 (_ bv340282366920938463463374607431768211455 256)) x190) (= (bvmul x219 x146) x58) (= (x132 (_ bv288 256)) x148) (= (x66 x293) x110) (= (bvadd (bvneg (_ bv1 256)) x68) x174) (= x10 (x70 (_ bv64 256) x86 (_ bv2 256))) (= x215 x219) (= x190 x147) (= (x66 x309) x233) (= x17 x224) (= x293 (bvadd x197 (_ bv1 256))) (= x89 (x70 (_ bv64 256) x86 (_ bv3 256))) (= (bvand x233 (_ bv340282366920938463463374607431768211455 256)) x27) (= x238 (bvadd x174 x58)) (= x249 (bvadd (_ bv1000000 256) x169)) (= x309 (bvadd (_ bv1 256) x89)) (= x68 x249) (= (x66 x207) x213) (= x146 x147) (= (x70 (_ bv64 256) x342 x10) x197) (= false x96) (= x265 x249) (= (x70 (_ bv64 256) x86 (_ bv3 256)) x175)) (and (and (and (= x148 x203) (bvule (_ bv0 256) x42) (= (x132 (_ bv256 256)) x170) (= x116 x82) (= x38 x116) (= x35 (_ bv1000000000000000000000000000000000000 256)) (= x137 (x70 (_ bv64 256) x342 x244)) (= false x167) (= x42 (bvmul x82 x216)) (bvule x42 (_ bv115792089237316195423570985008687907853269984665640564039457584007913129639935 256)) (= x38 (bvudiv x61 (_ bv340282366920938463463374607431768211456 256))) (= x61 (x66 x161)) (= x173 x188) (= x203 x216) (= (bvadd (_ bv1 256) x137) x161) (= x244 (x70 (_ bv64 256) x86 (_ bv2 256)))) (and (= (bvudiv x42 (_ bv1000000000000000000000000000000000000 256)) x72) (and (and (= x55 x170) (= x12 x352) (= x72 x24) (bvule (_ bv0 256) x201) (= false x310) (= x201 (bvmul x352 x139)) (= x55 x139) (bvule x201 (_ bv115792089237316195423570985008687907853269984665640564039457584007913129639935 256)) (= (_ bv1000000000000000000 256) x180) (= x12 x24)) (and (= (bvudiv x201 (_ bv1000000000000000000 256)) x354) (and (= x114 x209) (= (not (bvult x234 x188)) x285) (= x354 x234) (= (ite x285 (_ bv1 256) (_ bv0 256)) x107)))))) (= (bvudiv x238 x265) x173))) (= x17 x133)) x6)))
(assert (bvult (_ bv10000 256) (x70 (_ bv64 256) x67 x275)))
(assert (x84 (_ bv72464927124685711895252664195178772226123872012682517813167109100718830649344 256)))
(assert (=> (bvuge (_ bv10000 256) x67) (= (_ bv0 256) (x273 x67))))
(assert (= (x273 (bvadd (_ bv1 256) x33)) (x273 x33)))
(assert (= x332 (=> (and (and (= x350 (x70 (_ bv64 256) x62 (_ bv3 256))) (= (_ bv181336955 256) x164) (bvule x119 (_ bv999999999999999999 256)) (= (_ bv1 256) x8) (= x74 (_ bv36 256)) (= (x262 x179) x151) (= (x297 (_ bv4 256)) x119) (= (x78 x346) x9) (= (= x45 x228) x57) (= x319 x119) (= (bvadd x350 (_ bv2 256)) x179) (= x183 x98) (bvuge x9 (_ bv1 256)) (= x183 x62) x57 (= (bvand x151 (_ bv340282366920938463463374607431768211455 256)) x45) (= x16 false)) (and (and (and (= x218 (x262 x135)) (= x299 (x78 x346)) (= x276 (bvand (_ bv255 256) x145)) (= x274 (x281 x346)) (= x288 x272) (= (_ bv1301850427 256) x231) (= x259 x274) (= x32 x319) (= (_ bv68 256) x331) (= (_ bv0 256) x276) (= (x70 (_ bv64 256) x119 (_ bv5 256)) x254) (= (bvand (_ bv115792089237316195423570985008687907853269984665640564039457584007913129639680 256) x218) x221) (= x129 x83) (= x338 x103) (= x145 (x262 x254)) (= x196 x323) (= (x255 x196) x129) (bvuge x299 (_ bv1 256)) (= x62 x308) (= x63 (x262 (_ bv0 256))) (= (bvadd (_ bv1 256) x221) x278) (= x135 (x70 (_ bv64 256) x119 (_ bv5 256))) (= (bvand x63 (_ bv1461501637330902918203684832716283019655932542975 256)) x338)) (and (and (and (= x65 x330) (and (and (= x235 x5) (and (= x313 x152) (and (= x340 x342) (= x64 (= (_ bv0 256) x121)) (= (x78 x346) x94) (= x217 (_ bv128 256)) (= x186 (x66 x301)) (= x342 x287) (= (x120 (_ bv192 256)) x256) (= (x120 (_ bv160 256)) x263) (= x301 (bvadd (_ bv1 256) x43)) (= x112 (x120 (_ bv128 256))) (bvule (_ bv1 256) x94) (= x86 (x26 (_ bv160 256) x112 x263 x256 x101 x355)) (= x355 (x120 (_ bv256 256))) (= (bvand (_ bv340282366920938463463374607431768211455 256) x186) x121) (= x124 (x70 (_ bv64 256) x86 (_ bv2 256))) (= x185 (_ bv1534929069 256)) (= (x70 (_ bv64 256) x342 x124) x43) (= (x120 (_ bv224 256)) x101)))) (= x25 x334))) (= x321 x60)) (and x31 (= x308 x155) (= x143 x67) (= x242 (x66 x236)) (= x288 x67) (= (_ bv1058260626 256) x21) (= x33 (x70 (_ bv64 256) x62 (_ bv3 256))) (= (x70 (_ bv64 256) x67 x275) x85) (bvule (_ bv1 256) x302) (= (bvudiv x88 (_ bv340282366920938463463374607431768211456 256)) x102) (= x71 (x78 x346)) (bvuge x71 (_ bv1 256)) (= (_ bv196 256) x351) (= (x66 x289) x88) (= x142 x14) (= x236 (bvadd x85 (_ bv1 256))) (= (bvuge x102 x105) x31) (= x340 x272) (= x105 (bvand x242 (_ bv340282366920938463463374607431768211455 256))) (= x266 (_ bv36 256)) (= x39 (_ bv3490909752 256)) (= (x70 (_ bv64 256) x62 (_ bv2 256)) x275) (= x14 x62) (= x289 (bvadd x33 (_ bv1 256))) (= (x78 x346) x302)))) (= x103 x323))) (and (=> (and (and (= x16 x114) (= x107 (_ bv1 256))) x64) x6) (=> (and (not x64) (and (and (bvuge (_ bv115792089237316195423570985008687907853269984665640564039457584007913129639935 256) x133) (= x322 (not x122)) (= x122 (= x247 x54)) (= x133 x54) (bvuge x133 (_ bv0 256)) (= x286 (x120 (_ bv192 256))) (= (_ bv288 256) x258) (= x198 (bvand x286 (_ bv1461501637330902918203684832716283019655932542975 256)))) (or (and (not x322) (and (= x209 x16) (not x322))) (and x322 (and (= x268 true) (= x206 x133) (= x268 x209) x322))))) x77)))))
(assert (=> (bvule x112 (_ bv10000 256)) (= (_ bv0 256) (x273 x112))))
(assert (= (x153 (x70 (_ bv64 256) x67 x275)) x67))
(assert (=> (bvule x119 (_ bv10000 256)) (= (x273 x119) (_ bv0 256))))
(assert (= (x149 (x26 (_ bv160 256) x128 x172 x176 x168 x318)) x168))
(assert (= (x227 (x70 (_ bv64 256) x339 x311)) (_ bv64 256)))
(assert (= (and x315 x253) x23))
(assert (= (x273 (x70 (_ bv64 256) x342 x244)) (x70 (_ bv64 256) x342 x244)))
(assert (x84 (_ bv1058260626 256)))
(assert (bvugt (x70 (_ bv64 256) x119 (_ bv5 256)) (_ bv10000 256)))
(assert (x84 (_ bv1000000000000000000 256)))
(assert (= (x227 (x70 (_ bv64 256) x62 (_ bv2 256))) (_ bv64 256)))
(assert (= (_ bv0 256) (x273 (_ bv115792089237316195423570985008687907853269984665640564039457584007913129639680 256))))
(assert (= (x70 (_ bv64 256) x339 x311) (x273 (x70 (_ bv64 256) x339 x311))))
(assert (not (x84 (x70 (_ bv64 256) x62 (_ bv2 256)))))
(assert (= (x153 (x70 (_ bv64 256) x339 x251)) x339))
(assert (= (_ bv64 256) (x227 (x70 (_ bv64 256) x67 x275))))
(assert (= (_ bv0 256) (x273 (_ bv57896044618658097711785492504343953926634992332820282019728792003956564819967 256))))
(assert (not (x84 (x70 (_ bv64 256) x67 x275))))
(assert (= (x153 (x26 (_ bv160 256) x56 x7 x237 x150 x230)) x56))
(assert (=> (bvule x150 (_ bv10000 256)) (= (_ bv0 256) (x273 x150))))
(assert (= x79 (x153 (x70 (_ bv64 256) x79 (_ bv3 256)))))
(assert (= (x273 x118) (x273 (bvadd (_ bv1 256) x118))))
(assert (x84 (_ bv1000000000000000000000000000000000000 256)))
(assert (= x342 (x153 (x70 (_ bv64 256) x342 x124))))
(assert (= (x115 (x70 (_ bv64 256) x339 x311)) x311))
(assert (bvugt (x70 (_ bv64 256) x342 x124) (_ bv10000 256)))
(assert (=> (bvuge (_ bv10000 256) x7) (= (x273 x7) (_ bv0 256))))
(assert (= x318 (x292 (x26 (_ bv160 256) x128 x172 x176 x168 x318))))
(assert (= (x273 x197) (x273 (bvadd x197 (_ bv1 256)))))
(assert (= (x70 (_ bv64 256) x86 (_ bv2 256)) (x273 (x70 (_ bv64 256) x86 (_ bv2 256)))))
(assert (= (x153 (x70 (_ bv64 256) x342 x10)) x342))
(assert (= (x227 (x70 (_ bv64 256) x339 x290)) (_ bv64 256)))
(assert (= (x273 (x70 (_ bv64 256) x342 x124)) (x70 (_ bv64 256) x342 x124)))
(assert (bvult (_ bv10000 256) (x26 (_ bv160 256) x112 x263 x256 x101 x355)))
(assert (= (_ bv0 256) (x273 (_ bv1301850427 256))))
(assert (not (x84 (x70 (_ bv64 256) x339 x251))))
(assert (=> (bvule x62 (_ bv10000 256)) (= (_ bv0 256) (x273 x62))))
(assert (= (and x325 (not x322)) x106))
(assert (bvugt (x70 (_ bv64 256) x339 x251) (_ bv10000 256)))
(assert (= x119 (x153 (x70 (_ bv64 256) x119 (_ bv5 256)))))
(assert (not (x84 (x26 (_ bv160 256) x128 x172 x176 x168 x318))))
(assert (= (or x130 x296) x166))
(assert (not (x84 (x70 (_ bv64 256) x339 x290))))
(assert (not (x84 (x70 (_ bv64 256) x86 (_ bv3 256)))))
(assert (= (and x325 x322) x11))
(assert (not (x84 (x70 (_ bv64 256) x62 (_ bv3 256)))))
(assert (= (_ bv0 256) (x273 (_ bv72464927124685711895252664195178772226123872012682517813167109100718830649344 256))))
(assert (not x20))
(assert (= (x153 (x26 (_ bv160 256) x112 x263 x256 x101 x355)) x112))
(assert (= (x70 (_ bv64 256) x342 x10) (x273 (x70 (_ bv64 256) x342 x10))))
(assert (x84 (_ bv3745429343 256)))
(assert (= (x273 (_ bv1000000 256)) (_ bv0 256)))
(assert (=> (bvule x56 (_ bv10000 256)) (= (_ bv0 256) (x273 x56))))
(assert (=> (bvuge (_ bv10000 256) x196) (= (_ bv0 256) (x273 x196))))
(assert (= (x227 (x70 (_ bv64 256) x86 (_ bv3 256))) (_ bv64 256)))
(assert (=> (bvule x346 (_ bv10000 256)) (= (_ bv0 256) (x273 x346))))
(assert (= (x149 (x26 (_ bv160 256) x112 x263 x256 x101 x355)) x101))
(assert (x84 (_ bv57896044618658097711785492504343953926634992332820282019728792003956564819967 256)))
(assert (=> (bvuge (_ bv10000 256) x101) (= (x273 x101) (_ bv0 256))))
(assert (= x79 (x153 (x70 (_ bv64 256) x79 (_ bv2 256)))))
(assert (x84 (_ bv340282366920938463463374607431768211456 256)))
(assert (= (x273 (bvadd (_ bv1 256) x100)) (x273 x100)))
(assert (= x275 (x115 (x70 (_ bv64 256) x67 x275))))
(assert (= (=> (and (= (not x114) x134) (= x76 (not (= (_ bv0 256) x107))) (= x28 (not (= (_ bv0 256) (ite x76 (_ bv1 256) (_ bv0 256))))) (= (or x28 (not x134)) x353)) x353) x6))
(assert (x84 (_ bv1000000 256)))
(assert (= (_ bv160 256) (x227 (x26 (_ bv160 256) x128 x172 x176 x168 x318))))
(assert (=> (bvule x339 (_ bv10000 256)) (= (_ bv0 256) (x273 x339))))
(assert (bvugt (x70 (_ bv64 256) x62 (_ bv2 256)) (_ bv10000 256)))
(assert (=> (bvuge (_ bv10000 256) x172) (= (_ bv0 256) (x273 x172))))
(assert (= (x70 (_ bv64 256) x119 (_ bv5 256)) (x273 (x70 (_ bv64 256) x119 (_ bv5 256)))))
(assert (= (x115 (x70 (_ bv64 256) x86 (_ bv2 256))) (_ bv2 256)))
(assert (bvult (_ bv10000 256) (x70 (_ bv64 256) x79 (_ bv2 256))))
(assert (= (x273 (bvadd x19 (_ bv1 256))) (x273 x19)))
(assert (x84 (_ bv4294967295 256)))
(assert (= (_ bv160 256) (x227 (x26 (_ bv160 256) x112 x263 x256 x101 x355))))
(assert (not (x84 (x70 (_ bv64 256) x342 x10))))
(assert (= x315 true))
(assert (= (x273 (bvadd x89 (_ bv1 256))) (x273 x89)))
(assert (= (x153 (x70 (_ bv64 256) x339 x311)) x339))
(assert (= (x273 (bvadd x175 (_ bv1 256))) (x273 x175)))
(assert (x84 (_ bv3490909752 256)))
(assert (not (x84 (x70 (_ bv64 256) x119 (_ bv5 256)))))
(assert (not (x84 (x26 (_ bv160 256) x56 x7 x237 x150 x230))))
(assert (= (and x335 x184) x296))
(assert (= x326 (or x23 x166)))
(assert (= x237 (x241 (x26 (_ bv160 256) x56 x7 x237 x150 x230))))
(assert (= (_ bv64 256) (x227 (x70 (_ bv64 256) x119 (_ bv5 256)))))
(assert (x84 (_ bv1301850427 256)))
(assert (= x339 (x153 (x70 (_ bv64 256) x339 x290))))
(assert (bvult (_ bv10000 256) (x26 (_ bv160 256) x128 x172 x176 x168 x318)))
(assert (= (x153 (x70 (_ bv64 256) x86 (_ bv2 256))) x86))
(assert (= x251 (x115 (x70 (_ bv64 256) x339 x251))))
(assert (= (_ bv3 256) (x115 (x70 (_ bv64 256) x86 (_ bv3 256)))))
(assert (= (_ bv64 256) (x227 (x70 (_ bv64 256) x79 (_ bv3 256)))))
(assert (bvult (_ bv10000 256) (x70 (_ bv64 256) x79 (_ bv3 256))))
(assert (= x80 (and x326 x64)))
(assert (= (x227 (x70 (_ bv64 256) x86 (_ bv2 256))) (_ bv64 256)))
(assert (= (x115 (x26 (_ bv160 256) x112 x263 x256 x101 x355)) x263))
(assert (= x62 (x153 (x70 (_ bv64 256) x62 (_ bv3 256)))))
(assert (x84 (_ bv1461501637330902918203684832716283019655932542975 256)))
(assert (= (x273 x282) (x273 (bvadd x282 (_ bv1 256)))))
(assert (= (x273 (_ bv4294967295 256)) (_ bv0 256)))
(assert (bvugt (x70 (_ bv64 256) x86 (_ bv2 256)) (_ bv10000 256)))
(assert (= (x115 (x26 (_ bv160 256) x128 x172 x176 x168 x318)) x172))
(assert (=> (bvule x256 (_ bv10000 256)) (= (x273 x256) (_ bv0 256))))
(assert (= x176 (x241 (x26 (_ bv160 256) x128 x172 x176 x168 x318))))
(assert (= (_ bv5 256) (x115 (x70 (_ bv64 256) x119 (_ bv5 256)))))
(assert (= x244 (x115 (x70 (_ bv64 256) x342 x244))))
(assert (= (x70 (_ bv64 256) x86 (_ bv3 256)) (x273 (x70 (_ bv64 256) x86 (_ bv3 256)))))
(assert (not (x84 (x70 (_ bv64 256) x339 x311))))
(assert (= (_ bv0 256) (x273 (_ bv1461501637330902918203684832716283019655932542975 256))))
(assert (= (x115 (x70 (_ bv64 256) x79 (_ bv2 256))) (_ bv2 256)))
(assert (= x7 (x115 (x26 (_ bv160 256) x56 x7 x237 x150 x230))))
(assert (not (x84 (x26 (_ bv160 256) x112 x263 x256 x101 x355))))
(assert (bvult (_ bv10000 256) (x70 (_ bv64 256) x339 x311)))
(assert (= (_ bv64 256) (x227 (x70 (_ bv64 256) x342 x10))))
(assert (= (x149 (x26 (_ bv160 256) x56 x7 x237 x150 x230)) x150))
(assert (= (_ bv3 256) (x115 (x70 (_ bv64 256) x62 (_ bv3 256)))))
(assert (= (x115 (x70 (_ bv64 256) x342 x10)) x10))
(assert (= (x115 (x70 (_ bv64 256) x339 x290)) x290))
(assert (= (x273 (x70 (_ bv64 256) x339 x290)) (x70 (_ bv64 256) x339 x290)))
(assert (= x356 (=> (and (and (and (= x29 x257) (= x214 x211) (= x307 x211) (= x298 (x70 (_ bv64 256) x339 x311)) (= (x262 x320) x136) (= x211 (bvadd (_ bv1000000 256) x34)) (= (x70 (_ bv64 256) x79 (_ bv3 256)) x282) (= x320 (bvadd x118 (_ bv1 256))) (= x267 (x2 (_ bv288 256))) (= (bvadd x282 (_ bv1 256)) x336) (= x333 (bvadd (bvneg (_ bv1 256)) x214)) (= x261 (bvadd (_ bv1 256) x298)) (= (bvmul x204 x154) x347) (= (bvudiv x136 (_ bv340282366920938463463374607431768211456 256)) x34) (= x280 (bvand x1 (_ bv340282366920938463463374607431768211455 256))) (= false x199) (= x1 (x262 x336)) (= (x262 x261) x202) (= x154 x156) (= x204 x257) (= (bvand x202 (_ bv340282366920938463463374607431768211455 256)) x29) (= (x70 (_ bv64 256) x79 (_ bv2 256)) x311) (= x118 (x70 (_ bv64 256) x79 (_ bv3 256))) (= x162 (bvadd x347 x333)) (= x108 x91) (= (bvadd (_ bv1 256) x280) x156)) (and (= (bvudiv x162 x307) x223) (and (and (= x81 (bvudiv x131 (_ bv1000000000000000000000000000000000000 256))) (and (and (and (not (bvugt x222 x312)) (= x247 x51) (= true x343) (= x312 x277)) (= x277 (bvudiv x303 (_ bv1000000000000000000 256)))) (and (= x178 x252) (= x127 x194) (= x81 x327) (= x95 (_ bv1000000000000000000 256)) (bvule (_ bv0 256) x303) (= x194 x193) (= x178 x327) (= x53 false) (bvuge (_ bv115792089237316195423570985008687907853269984665640564039457584007913129639935 256) x303) (= (bvmul x127 x252) x303)))) (and (= (x70 (_ bv64 256) x339 x251) x100) (= (x2 (_ bv256 256)) x193) (= x99 (bvadd (_ bv1 256) x100)) (= x222 x223) (= x187 x182) (= x131 (bvmul x191 x187)) (= false x157) (= x337 (x262 x99)) (= x189 x90) (bvule x131 (_ bv115792089237316195423570985008687907853269984665640564039457584007913129639935 256)) (= x271 (_ bv1000000000000000000000000000000000000 256)) (= (bvudiv x337 (_ bv340282366920938463463374607431768211456 256)) x90) (= x191 x189) (= (x70 (_ bv64 256) x79 (_ bv2 256)) x251) (bvule (_ bv0 256) x131) (= x267 x182))))) (= x108 x294)) x332)))
(assert (x84 (_ bv340282366920938463463374607431768211455 256)))
(assert (=> (bvuge (_ bv10000 256) x230) (= (_ bv0 256) (x273 x230))))
(assert (= (x115 (x70 (_ bv64 256) x342 x124)) x124))
(assert (= (_ bv64 256) (x227 (x70 (_ bv64 256) x62 (_ bv3 256)))))
(assert (= (x70 (_ bv64 256) x79 (_ bv2 256)) (x273 (x70 (_ bv64 256) x79 (_ bv2 256)))))
(assert (= (_ bv64 256) (x227 (x70 (_ bv64 256) x342 x124))))
(assert (= (x273 (x70 (_ bv64 256) x62 (_ bv2 256))) (x70 (_ bv64 256) x62 (_ bv2 256))))
(assert (not (x84 (x70 (_ bv64 256) x86 (_ bv2 256)))))
(assert (x84 (_ bv115792089237316195423570985008687907853269984665640564039457584007913129639680 256)))
(assert (=> (bvuge (_ bv10000 256) x355) (= (_ bv0 256) (x273 x355))))
(assert (= (x273 (bvadd x85 (_ bv1 256))) (x273 x85)))
(assert (= (x273 (_ bv115792089237316195423570985008687907853269984665640564039457584007913129639935 256)) (_ bv0 256)))
(assert (= (x273 (x26 (_ bv160 256) x128 x172 x176 x168 x318)) (x26 (_ bv160 256) x128 x172 x176 x168 x318)))
(assert (= (x115 (x70 (_ bv64 256) x79 (_ bv3 256))) (_ bv3 256)))
(assert (not (x84 (x70 (_ bv64 256) x342 x244))))
(assert (= (x70 (_ bv64 256) x79 (_ bv3 256)) (x273 (x70 (_ bv64 256) x79 (_ bv3 256)))))
(assert (= (x273 x43) (x273 (bvadd (_ bv1 256) x43))))
(assert (= (_ bv64 256) (x227 (x70 (_ bv64 256) x342 x244))))
(assert (= (x273 (_ bv1534929069 256)) (_ bv0 256)))
(assert (bvult (_ bv10000 256) (x70 (_ bv64 256) x86 (_ bv3 256))))
(assert (= (x292 (x26 (_ bv160 256) x112 x263 x256 x101 x355)) x355))
(assert (=> (bvule x318 (_ bv10000 256)) (= (_ bv0 256) (x273 x318))))
(assert (= (_ bv64 256) (x227 (x70 (_ bv64 256) x79 (_ bv2 256)))))
(assert (= (and (not x184) x335) x130))
(assert (= x20 (=> (and (and (= x47 x321) (and (= x65 x239) (and (= x334 x126) (and (= x235 x87) (and (and (and (= x113 x65) (and (and (= x73 x235) (and (and (= x329 (x262 x104)) (= (bvand x329 (_ bv340282366920938463463374607431768211455 256)) x50) (= (_ bv128 256) x41) (= x339 x59) (bvule (_ bv1 256) x283) (= x283 (x78 x346)) (= x290 (x70 (_ bv64 256) x79 (_ bv2 256))) (= x253 (= (_ bv0 256) x50)) (= x7 (x305 (_ bv160 256))) (= x230 (x305 (_ bv256 256))) (= x79 (x26 (_ bv160 256) x56 x7 x237 x150 x230)) (= (x305 (_ bv224 256)) x150) (= (x305 (_ bv128 256)) x56) (= (x70 (_ bv64 256) x339 x290) x19) (= x339 x317) (= x306 (_ bv1534929069 256)) (= x104 (bvadd x19 (_ bv1 256))) (= x237 (x305 (_ bv192 256)))) (= x171 x313))) (= x208 x334))) (= x321 x316)) (and (= x172 (x97 (_ bv160 256))) (bvule (_ bv1 256) x4) (= (_ bv196 256) x159) (bvuge x272 (_ bv0 256)) (= (x97 (_ bv256 256)) x318) (= x272 x59) (= x313 x117) (= (_ bv3745429343 256) x40) (= (x97 (_ bv128 256)) x128) (= x176 (x97 (_ bv192 256))) (= x168 (x97 (_ bv224 256))) (= x62 (x109 (_ bv288 256))) (= x212 (_ bv128 256)) (= x4 (x78 x346)) (bvuge (_ bv1461501637330902918203684832716283019655932542975 256) x272) (= (x26 (_ bv160 256) x128 x172 x176 x168 x318) x246))))))) (and (bvuge x144 (_ bv0 256)) (bvule (_ bv0 256) x334) (bvuge (_ bv340282366920938463463374607431768211455 256) x228) (bvule (_ bv0 256) x321) (bvule (_ bv0 256) x314) (bvuge (_ bv1461501637330902918203684832716283019655932542975 256) x323) (bvuge (_ bv1461501637330902918203684832716283019655932542975 256) x144) (bvule x314 (_ bv115792089237316195423570985008687907853269984665640564039457584007913129639935 256)) (bvuge x30 (_ bv0 256)) (bvuge x328 (_ bv0 256)) (bvule (_ bv0 256) x300) (bvule (_ bv0 256) x158) (bvule (_ bv0 256) x15) (bvule x346 (_ bv1461501637330902918203684832716283019655932542975 256)) (bvuge (_ bv1461501637330902918203684832716283019655932542975 256) x334) (bvuge x250 (_ bv0 256)) (bvule (_ bv36 256) x181) x349 (bvuge x235 (_ bv0 256)) (bvule x177 (_ bv4294967295 256)) (bvule (_ bv1 256) x348) (bvule x181 (_ bv57896044618658097711785492504343953926634992332820282019728792003956564819967 256)) (bvule (_ bv0 256) x65) (= x232 (_ bv0 256)) (bvuge (_ bv1461501637330902918203684832716283019655932542975 256) x348) (bvule x250 (_ bv115792089237316195423570985008687907853269984665640564039457584007913129639935 256)) (bvuge (_ bv115792089237316195423570985008687907853269984665640564039457584007913129639935 256) x300) (bvuge (_ bv1461501637330902918203684832716283019655932542975 256) x321) (bvule x313 (_ bv999999999999999999 256)) x69 (= (bvult (_ bv0 256) (x78 x346)) x349) (bvuge x313 (_ bv0 256)) (bvule x328 (_ bv115792089237316195423570985008687907853269984665640564039457584007913129639935 256)) (bvule x15 (_ bv115792089237316195423570985008687907853269984665640564039457584007913129639935 256)) (bvule (_ bv1 256) x346) (= (_ bv164 256) x248) (= (bvugt (x78 x348) (_ bv0 256)) x69) (bvuge (_ bv1461501637330902918203684832716283019655932542975 256) x30) (bvuge x177 (_ bv0 256)) (bvule x65 (_ bv1461501637330902918203684832716283019655932542975 256)) (bvuge (_ bv1461501637330902918203684832716283019655932542975 256) x158) (bvuge x323 (_ bv0 256)) (bvule (_ bv0 256) x228) (not (= x346 x348)) (bvule x235 (_ bv1461501637330902918203684832716283019655932542975 256)))) (and (=> (and (= x75 x247) x253) x332) (=> (and (and (and (= (_ bv288 256) x200) (= x210 (bvand x123 (_ bv1461501637330902918203684832716283019655932542975 256))) (= (= x75 x279) x93) (bvuge (_ bv115792089237316195423570985008687907853269984665640564039457584007913129639935 256) x294) (= (x305 (_ bv192 256)) x123) (= x184 (not x93)) (= x279 x294) (bvuge x294 (_ bv0 256))) (or (and (not x184) (and (= x51 x75) (not x184))) (and x184 (and (= x294 x138) (= x51 x138) x184 (= true x341))))) (not x253)) x356)))))
(check-sat)
(exit)
